1
8
0.4 0.2
0.6 0.2
0.7 0.3
0.3 0.35
0.6 0.4
0.8 0.4
0.15 0.4
0.4 0.6
0 1 1 1 1 1 1 1
1 0 1 1 1 1 1 1
1 1 0 1 1 1 1 1
1 1 1 0 1 1 1 1
1 1 1 1 0 1 1 1
1 1 1 1 1 0 1 1
1 1 1 1 1 1 0 1
1 1 1 1 1 1 1 0
1
